1)
27603
9 7 3 4 8 5 1 2 6 10 11 12 15 19 18 17 21 22 23 29 28 26 20 25 27 24 16 14 13 9
2)
27603
3 4 8 5 1 2 6 10 11 12 15 19 18 17 21 22 23 29 28 26 20 25 27 24 16 14 13 9 7 3
3)
27603
4 8 5 1 2 6 10 11 12 15 19 18 17 21 22 23 29 28 26 20 25 27 24 16 14 13 9 7 3 4
4)
27603
9 7 3 4 8 5 1 2 6 10 11 12 15 19 18 17 21 22 23 29 28 26 20 25 27 24 16 14 13 9
5)
27603
4 8 5 1 2 6 10 11 12 15 19 18 17 21 22 23 29 28 26 20 25 27 24 16 14 13 9 7 3 4
6)
27603
13 9 7 3 4 8 5 1 2 6 10 11 12 15 19 18 17 21 22 23 29 28 26 20 25 27 24 16 14 13
7)
27603
8 5 1 2 6 10 11 12 15 19 18 17 21 22 23 29 28 26 20 25 27 24 16 14 13 9 7 3 4 8
8)
27603
7 3 4 8 5 1 2 6 10 11 12 15 19 18 17 21 22 23 29 28 26 20 25 27 24 16 14 13 9 7
9)
27603
9 7 3 4 8 5 1 2 6 10 11 12 15 19 18 17 21 22 23 29 28 26 20 25 27 24 16 14 13 9
10)
27603
8 5 1 2 6 10 11 12 15 19 18 17 21 22 23 29 28 26 20 25 27 24 16 14 13 9 7 3 4 8
Mean: 27603
Standard Deviation: 0